
n_res = 4;
rcap = [24, 26, 597, 586];
rtype = [1, 1, 2, 2];
n_tasks = 100;
modes =  [{1, 2, 3}, {4, 5, 6}, {7, 8, 9}, {10, 11, 12}, {13, 14, 15}, {16, 17, 18}, {19, 20, 21}, {22, 23, 24}, {25, 26, 27}, {28, 29, 30}, {31, 32, 33}, {34, 35, 36}, {37, 38, 39}, {40, 41, 42}, {43, 44, 45}, {46, 47, 48}, {49, 50, 51}, {52, 53, 54}, {55, 56, 57}, {58, 59, 60}, {61, 62, 63}, {64, 65, 66}, {67, 68, 69}, {70, 71, 72}, {73, 74, 75}, {76, 77, 78}, {79, 80, 81}, {82, 83, 84}, {85, 86, 87}, {88, 89, 90}, {91, 92, 93}, {94, 95, 96}, {97, 98, 99}, {100, 101, 102}, {103, 104, 105}, {106, 107, 108}, {109, 110, 111}, {112, 113, 114}, {115, 116, 117}, {118, 119, 120}, {121, 122, 123}, {124, 125, 126}, {127, 128, 129}, {130, 131, 132}, {133, 134, 135}, {136, 137, 138}, {139, 140, 141}, {142, 143, 144}, {145, 146, 147}, {148, 149, 150}, {151, 152, 153}, {154, 155, 156}, {157, 158, 159}, {160, 161, 162}, {163, 164, 165}, {166, 167, 168}, {169, 170, 171}, {172, 173, 174}, {175, 176, 177}, {178, 179, 180}, {181, 182, 183}, {184, 185, 186}, {187, 188, 189}, {190, 191, 192}, {193, 194, 195}, {196, 197, 198}, {199, 200, 201}, {202, 203, 204}, {205, 206, 207}, {208, 209, 210}, {211, 212, 213}, {214, 215, 216}, {217, 218, 219}, {220, 221, 222}, {223, 224, 225}, {226, 227, 228}, {229, 230, 231}, {232, 233, 234}, {235, 236, 237}, {238, 239, 240}, {241, 242, 243}, {244, 245, 246}, {247, 248, 249}, {250, 251, 252}, {253, 254, 255}, {256, 257, 258}, {259, 260, 261}, {262, 263, 264}, {265, 266, 267}, {268, 269, 270}, {271, 272, 273}, {274, 275, 276}, {277, 278, 279}, {280, 281, 282}, {283, 284, 285}, {286, 287, 288}, {289, 290, 291}, {292, 293, 294}, {295, 296, 297}, {298, 299, 300}];
succ =  [{25, 23, 21, 18, 17, 13, 5}, {25, 23, 21, 18, 5}, {36, 25, 18, 16, 14, 11}, {36, 35, 26, 25, 24, 23, 22, 21, 19}, {36, 33, 26, 24, 22, 20, 19, 14}, {26, 21, 16, 15, 14}, {36, 22, 21, 20, 19, 14}, {36, 35, 26, 22, 21, 18}, {36, 30, 26, 22, 18, 14}, {36, 33, 26, 22, 20, 19}, {35, 33, 32, 27, 23, 20}, {36, 35, 21, 19}, {35, 34, 32, 29, 28, 27}, {41, 38, 35, 34, 32, 29, 27}, {40, 36, 35, 34, 33, 30, 29}, {40, 35, 33, 29, 28, 24}, {33, 31, 29, 26, 24}, {40, 31, 29, 28, 24}, {40, 32, 31, 29, 28}, {43, 40, 34, 30, 29}, {34, 33, 30, 29}, {41, 40, 38, 32, 29}, {43, 42, 40, 34, 28}, {55, 51, 44, 43, 42, 32}, {55, 44, 43, 42, 38, 32}, {42, 41, 40, 38, 32}, {46, 42, 40, 31}, {55, 49, 48, 46, 41, 39, 38}, {56, 55, 50, 48, 44, 42, 37}, {49, 48, 41, 39, 38}, {56, 55, 51, 49, 47, 45, 43}, {49, 48, 46, 39, 37}, {48, 42, 39, 37}, {62, 55, 53, 49, 46, 44, 39}, {56, 52, 49, 45, 43}, {62, 59, 58, 57, 54, 52, 51, 50}, {62, 47, 45}, {65, 47, 45}, {61, 58, 57, 56, 54, 52, 50}, {68, 62, 58, 57, 54, 53, 50}, {62, 59, 57, 56, 54, 51}, {58, 57, 53, 52, 49}, {68, 61, 58, 50, 48}, {65, 59, 54, 47}, {68, 66, 59, 58, 57, 54, 53}, {78, 71, 64, 61, 59, 57, 56}, {72, 63, 61, 57, 52}, {71, 70, 67, 66, 62, 54}, {78, 75, 71, 68, 65, 64, 60, 59}, {74, 72, 71, 70, 67, 66, 65, 64, 63, 60}, {67, 60, 53}, {78, 74, 71, 68, 67, 66, 64, 60}, {80, 78, 77, 75, 72, 71, 69, 61}, {78, 75, 74, 72, 64, 63, 60}, {77, 75, 74, 70, 69, 67, 63}, {74, 70, 67, 66, 60}, {92, 75, 74, 67, 60}, {74, 72, 71, 60}, {74, 73, 72, 70, 63}, {86, 84, 82, 81, 80, 79, 77, 73, 69}, {92, 86, 82, 74, 73, 70}, {81, 79, 73, 65}, {100, 92, 89, 87, 86, 84, 83, 81, 80}, {92, 89, 86, 84, 82, 73}, {100, 93, 86, 85, 84, 83, 82, 76}, {92, 91, 86, 83, 79, 77}, {87, 86, 84, 79, 73}, {93, 91, 86, 80, 79, 77}, {100, 98, 93, 85, 83, 76}, {100, 87, 84, 83, 81, 79}, {100, 92, 91, 85, 82, 79}, {100, 99, 98, 93, 90, 89, 87, 85, 84}, {100, 99, 98, 93, 88, 85, 83}, {99, 93, 90, 89, 85, 84}, {99, 89, 82}, {99, 91, 89, 87}, {100, 87, 85}, {99, 98, 97, 94, 91}, {99, 98, 97, 89}, {98, 88, 85}, {99, 98, 88}, {98, 87}, {94, 90}, {91, 88}, {97, 96, 95, 94}, {98, 97, 95, 94}, {88}, {96, 95, 94}, {96, 95, 94}, {97, 96, 95}, {96, 95}, {93}, {94}, {}, {}, {}, {}, {}, {}, {}];
n_opt = 300;
dur = [5, 9, 10, 1, 2, 10, 1, 4, 6, 1, 2, 5, 1, 2, 8, 4, 6, 10, 2, 7, 9, 4, 5, 6, 3, 4, 10, 3, 8, 10, 7, 9, 10, 3, 6, 7, 4, 5, 10, 2, 5, 6, 1, 2, 6, 1, 2, 5, 5, 6, 9, 2, 6, 7, 5, 6, 10, 2, 4, 7, 5, 7, 10, 6, 7, 8, 2, 3, 10, 2, 3, 9, 6, 7, 9, 8, 9, 10, 6, 7, 9, 4, 7, 10, 6, 7, 10, 1, 3, 6, 2, 5, 7, 4, 7, 8, 4, 8, 9, 3, 6, 9, 2, 7, 8, 3, 4, 6, 7, 9, 10, 5, 9, 10, 2, 6, 7, 3, 7, 8, 1, 4, 7, 6, 7, 8, 5, 6, 7, 1, 2, 9, 4, 7, 8, 1, 7, 9, 4, 5, 6, 2, 3, 9, 4, 7, 8, 2, 3, 6, 1, 4, 6, 1, 6, 10, 2, 5, 6, 4, 5, 8, 1, 2, 4, 1, 3, 6, 1, 7, 10, 1, 4, 8, 2, 5, 9, 3, 5, 7, 3, 4, 5, 1, 6, 8, 2, 4, 5, 3, 6, 9, 6, 9, 10, 8, 9, 10, 2, 6, 9, 2, 6, 10, 6, 8, 10, 2, 4, 7, 8, 9, 10, 3, 6, 7, 6, 7, 10, 6, 9, 10, 4, 9, 10, 1, 7, 8, 2, 3, 5, 1, 5, 8, 1, 6, 7, 4, 6, 9, 3, 4, 8, 3, 4, 10, 2, 7, 8, 1, 6, 8, 1, 2, 3, 2, 7, 9, 5, 8, 9, 4, 5, 6, 2, 5, 8, 2, 4, 8, 1, 5, 7, 8, 9, 10, 2, 6, 10, 2, 5, 8, 4, 7, 10, 1, 3, 7, 3, 6, 9, 1, 2, 3, 1, 3, 4, 2, 7, 10];
rreq = [|5, 2, 2, 4, 3, 3, 3, 2, 2, 6, 3, 1, 7, 5, 2, 6, 4, 4, 4, 4, 3, 4, 4, 4, 8, 7, 5, 3, 3, 3, 6, 5, 4, 8, 6, 2, 5, 5, 2, 9, 8, 8, 3, 2, 2, 4, 3, 2, 6, 3, 2, 8, 7, 6, 2, 2, 2, 10, 9, 9, 2, 2, 2, 5, 4, 4, 5, 4, 3, 1, 1, 1, 4, 3, 1, 2, 2, 2, 9, 6, 5, 9, 6, 3, 9, 6, 4, 3, 3, 3, 9, 9, 9, 8, 5, 5, 9, 5, 4, 5, 5, 3, 9, 5, 5, 9, 8, 7, 6, 4, 3, 9, 9, 8, 8, 5, 5, 7, 5, 3, 7, 5, 5, 7, 5, 4, 4, 3, 2, 4, 3, 3, 6, 6, 6, 1, 1, 1, 8, 6, 4, 6, 4, 3, 8, 8, 4, 8, 4, 3, 6, 4, 2, 10, 10, 10, 7, 7, 6, 7, 5, 5, 5, 3, 3, 3, 3, 3, 7, 4, 3, 6, 5, 5, 10, 9, 9, 7, 5, 4, 7, 6, 4, 9, 9, 9, 9, 9, 9, 8, 6, 5, 6, 5, 5, 7, 6, 6, 9, 7, 6, 9, 9, 9, 9, 7, 3, 4, 2, 1, 6, 5, 5, 8, 6, 2, 6, 6, 6, 4, 4, 4, 8, 4, 3, 9, 9, 9, 6, 5, 5, 8, 6, 6, 7, 5, 5, 3, 3, 3, 8, 8, 8, 5, 3, 3, 5, 4, 3, 2, 2, 1, 9, 4, 1, 8, 7, 7, 9, 9, 9, 9, 9, 9, 3, 3, 2, 6, 5, 2, 2, 2, 2, 7, 6, 6, 8, 5, 3, 10, 9, 9, 6, 6, 6, 9, 9, 7, 9, 6, 5, 6, 5, 5, 8, 6, 4, 5, 4, 4
 |4, 4, 4, 6, 6, 6, 6, 3, 2, 7, 7, 6, 10, 10, 10, 6, 5, 4, 9, 8, 7, 5, 4, 4, 7, 5, 3, 5, 5, 4, 7, 5, 1, 3, 2, 1, 5, 3, 2, 8, 8, 7, 10, 9, 9, 5, 4, 4, 8, 8, 7, 7, 6, 3, 6, 5, 3, 9, 5, 4, 7, 6, 5, 10, 7, 6, 7, 4, 3, 8, 6, 4, 6, 6, 5, 9, 9, 9, 10, 4, 3, 6, 5, 5, 6, 6, 6, 6, 6, 6, 1, 1, 1, 5, 4, 3, 9, 5, 3, 3, 2, 2, 9, 5, 5, 9, 9, 9, 2, 2, 1, 7, 7, 5, 9, 6, 6, 7, 4, 2, 3, 3, 3, 8, 4, 2, 9, 6, 4, 5, 2, 2, 7, 4, 3, 7, 7, 6, 9, 9, 7, 2, 2, 2, 8, 8, 7, 7, 4, 3, 7, 5, 5, 8, 6, 1, 6, 2, 1, 6, 5, 3, 5, 4, 3, 4, 4, 4, 5, 5, 5, 5, 5, 5, 7, 6, 6, 5, 5, 4, 7, 6, 4, 5, 4, 3, 4, 4, 4, 8, 5, 1, 6, 5, 5, 8, 8, 8, 4, 3, 2, 9, 8, 8, 8, 6, 3, 7, 4, 2, 6, 3, 2, 8, 8, 8, 9, 7, 7, 6, 3, 1, 7, 6, 5, 8, 8, 7, 4, 4, 4, 7, 7, 3, 6, 3, 3, 6, 5, 5, 7, 5, 2, 10, 8, 8, 2, 2, 1, 9, 8, 6, 8, 8, 7, 8, 8, 6, 2, 1, 1, 7, 7, 3, 5, 5, 5, 7, 3, 1, 9, 8, 5, 8, 6, 6, 9, 7, 5, 8, 5, 4, 6, 5, 3, 9, 7, 6, 9, 8, 8, 8, 8, 8, 7, 5, 3, 8, 6, 1
 |5, 3, 2, 8, 7, 7, 7, 6, 6, 7, 6, 3, 7, 4, 3, 8, 7, 6, 2, 1, 1, 7, 6, 3, 10, 6, 4, 2, 2, 2, 4, 3, 1, 4, 2, 1, 6, 5, 4, 8, 6, 5, 6, 5, 5, 5, 4, 3, 5, 5, 2, 5, 5, 3, 8, 7, 7, 10, 8, 6, 7, 3, 1, 3, 2, 1, 2, 2, 2, 10, 10, 10, 9, 8, 7, 7, 6, 4, 9, 9, 9, 3, 3, 3, 5, 4, 4, 6, 6, 6, 7, 7, 6, 3, 2, 1, 7, 6, 4, 8, 7, 5, 5, 2, 1, 6, 6, 6, 6, 6, 5, 5, 5, 4, 3, 3, 1, 1, 1, 1, 6, 4, 3, 9, 8, 5, 9, 5, 5, 3, 3, 3, 6, 5, 3, 7, 7, 5, 6, 5, 4, 10, 8, 8, 7, 7, 6, 7, 5, 4, 7, 6, 5, 9, 5, 5, 5, 4, 2, 8, 6, 2, 4, 4, 4, 4, 3, 2, 6, 6, 6, 9, 6, 2, 10, 8, 7, 8, 7, 6, 4, 4, 4, 7, 7, 7, 3, 2, 2, 6, 5, 5, 5, 2, 2, 4, 2, 2, 8, 7, 7, 6, 5, 3, 5, 5, 5, 3, 3, 2, 10, 10, 10, 10, 9, 8, 5, 4, 4, 5, 2, 2, 8, 8, 8, 9, 4, 4, 9, 8, 6, 9, 9, 8, 6, 6, 6, 8, 7, 6, 10, 9, 7, 9, 5, 5, 4, 4, 4, 2, 1, 1, 6, 6, 4, 9, 8, 6, 6, 5, 5, 9, 8, 6, 5, 5, 3, 9, 6, 6, 6, 5, 4, 7, 4, 3, 8, 8, 8, 8, 8, 6, 9, 8, 8, 5, 4, 3, 9, 7, 4, 6, 4, 4, 8, 7, 6, 8, 7, 7
 |5, 5, 5, 6, 4, 1, 7, 4, 4, 8, 7, 7, 9, 5, 4, 9, 9, 9, 10, 8, 8, 8, 8, 8, 10, 6, 6, 8, 7, 7, 8, 5, 4, 2, 2, 2, 7, 6, 6, 7, 7, 6, 10, 10, 9, 3, 2, 1, 10, 10, 10, 3, 2, 1, 9, 6, 6, 3, 3, 3, 3, 2, 1, 4, 3, 1, 5, 3, 1, 10, 8, 7, 10, 9, 8, 4, 3, 2, 7, 5, 4, 7, 5, 5, 9, 7, 4, 3, 2, 1, 10, 8, 8, 8, 3, 2, 8, 8, 8, 5, 3, 3, 4, 4, 4, 6, 5, 5, 5, 4, 2, 4, 3, 2, 7, 7, 7, 8, 8, 8, 3, 3, 2, 9, 8, 8, 7, 7, 7, 6, 5, 2, 9, 9, 9, 5, 4, 4, 4, 2, 2, 7, 7, 7, 7, 6, 5, 8, 5, 3, 5, 4, 4, 7, 3, 1, 8, 7, 7, 6, 5, 5, 9, 6, 5, 3, 3, 3, 1, 1, 1, 3, 2, 2, 6, 4, 4, 2, 2, 2, 9, 5, 3, 9, 6, 5, 9, 7, 3, 2, 1, 1, 9, 7, 6, 4, 4, 3, 2, 2, 1, 6, 5, 5, 8, 3, 1, 10, 9, 8, 8, 7, 7, 8, 8, 8, 5, 3, 2, 6, 5, 4, 8, 8, 8, 1, 1, 1, 7, 7, 7, 8, 7, 7, 4, 4, 3, 6, 3, 3, 10, 7, 7, 6, 5, 4, 3, 3, 3, 8, 7, 7, 5, 5, 5, 7, 6, 3, 7, 6, 4, 6, 3, 2, 9, 7, 6, 8, 6, 6, 7, 6, 2, 6, 5, 1, 6, 3, 2, 4, 3, 2, 6, 5, 5, 8, 5, 4, 2, 2, 2, 4, 3, 2, 3, 2, 2, 8, 8, 7|];